p cnf 12 50 
-3 4 -6 0
2 -9 4 0
5 -2 -7 0
10 -1 -7 0
-3 -8 -2 0
1 3 -2 0
-4 2 7 0
11 -6 4 0
-8 10 -1 0
8 9 -12 0
-9 -2 -8 0
10 12 2 0
12 5 9 0
6 2 5 0
3 -9 10 0
6 11 10 0
-5 -12 10 0
9 -10 -7 0
9 3 -11 0
11 3 1 0
4 9 -8 0
6 -10 7 0
-5 2 11 0
4 12 -2 0
-1 5 -8 0
6 -9 8 0
3 -10 -6 0
-8 -6 9 0
2 9 -5 0
-1 -5 2 0
11 -7 12 0
-12 8 -6 0
-3 5 1 0
-12 -2 -3 0
3 -7 1 0
-5 1 9 0
-12 -4 2 0
-12 -10 2 0
11 -7 -4 0
-1 4 7 0
-6 4 11 0
8 -9 -3 0
-12 -5 -9 0
3 6 -2 0
5 -3 -1 0
-1 -2 10 0
9 -5 -2 0
-1 -7 6 0
10 9 11 0
-1 9 12 0
